80 8
69 61
44 20
65 18
82 11
78 77
92 45
12 40
12 8
24 74
20 88
48 58
26 61
2 89
55 48
12 100
42 5
35 63
79 52
8 76
6 49
83 77
17 47
73 26
3 75
18 53
81 28
100 18
52 97
36 13
75 84
42 66
21 47
63 15
52 99
33 87
88 82
6 43
73 81
89 4
21 92
33 31
65 23
94 96
14 48
2 51
93 32
28 20
81 44
60 66
36 87
82 10
43 71
36 51
58 67
67 78
15 43
11 23
2 16
52 100
58 76
77 87
44 23
98 20
26 18
21 55
88 15
66 34
78 27
81 53
9 27
49 7
38 60
83 95
12 80
37 58
31 34
86 11
59 23
52 5
19 36
448 508
459 536
440 546
370 450
460 554
359 412
435 525
489 548
